
  22   10
  10   10   10   10   10   10   10   10   10   10

   0   0   0   0   0   0   0   0   0   0   0   7 2 3 5 9 11 12 21 
   4   0   0   0   0   0  10   0   0   0   0   2 7 4 
   3   0   0   0   0   0   0   0   0  10   0   3 14 10 8 
   1   0   0   0   0   0   0   0   0  10   0   2 20 6 
   7   0   0   0   0  10   0   0   0   0   0   2 14 6 
   5   0   0   0   0   0   0  10   0   0   0   3 19 17 8 
   8   0   0   0   0   0  10   0   0   0   0   2 18 8 
   5   0  10   0   0   0   0   0   0   0   0   2 16 13 
   1   0   0  10   0   0   0   0   0   0   0   2 16 13 
  10   0   0   0   0   0   0   0  10   0   0   2 18 17 
   8   0   0  10   0   0   0   0   0   0   0   2 18 15 
   5   0   0   0   0   0   0  10   0   0   0   2 16 15 
   6   0   0   0   0   0   0   0   0   0  10   1 15 
   5   0   0   0   0   0   0   0   0  10   0   1 16 
   3  10   0   0   0   0   0   0   0   0   0   1 22
   9   0   0   0  10   0   0   0   0   0   0   1 22
   6   0   0  10   0   0   0   0   0   0   0   1 22
   8   0   0   0   0   0   0   0  10   0   0   1 22
  10   0  10   0   0   0   0   0   0   0   0   1 22
   5   0   0   0   0   0   0  10   0   0   0   1 22
   1   0   0   0   0   0   0   0   0  10   0   1 22
   0   0   0   0   0   0   0   0   0   0   0   0 
